(set-info :smt-lib-version 2.6)
(set-info :category "crafted")
(set-logic QF_FFA)
(define-sort FF0 () (_ FiniteField 52435875175126190479447740508185965837690552500527637822603658699938581184513))
(declare-fun i () Bool)
(declare-fun b () Bool)
(declare-fun d () Bool)
(declare-fun g () Bool)
(declare-fun a () Bool)
(declare-fun j () Bool)
(declare-fun f () Bool)
(declare-fun l () Bool)
(declare-fun e () Bool)
(declare-fun h () Bool)
(declare-fun c () Bool)
(declare-fun k () Bool)
(declare-fun return_n1 () FF0)
(declare-fun mul_n16 () FF0)
(declare-fun mul_n23 () FF0)
(declare-fun j_n5 () FF0)
(declare-fun mul_n22 () FF0)
(declare-fun mul_n17 () FF0)
(declare-fun mul_n21 () FF0)
(declare-fun mul_n20 () FF0)
(declare-fun mul_n19 () FF0)
(declare-fun h_n9 () FF0)
(declare-fun c_n8 () FF0)
(declare-fun k_n3 () FF0)
(declare-fun mul_n18 () FF0)
(declare-fun l_n0 () FF0)
(declare-fun e_n4 () FF0)
(declare-fun f_n2 () FF0)
(declare-fun i_n7 () FF0)
(declare-fun mul_n15 () FF0)
(declare-fun mul_n13 () FF0)
(declare-fun g_n11 () FF0)
(declare-fun mul_n14 () FF0)
(declare-fun a_n12 () FF0)
(declare-fun b_n10 () FF0)
(declare-fun d_n6 () FF0)
(assert 
  (let ((let0 i))
  (let ((let1 b))
  (let ((let2 d))
  (let ((let3 (=> let2 let1)))
  (let ((let4 g))
  (let ((let5 a))
  (let ((let6 (= let5 let4)))
  (let ((let7 (and let6 let3 let0)))
  (let ((let8 j))
  (let ((let9 (not let8)))
  (let ((let10 f))
  (let ((let11 (=> let10 let10)))
  (let ((let12 l))
  (let ((let13 e))
  (let ((let14 (= let13 let12)))
  (let ((let15 h))
  (let ((let16 c))
  (let ((let17 (= let16 let15)))
  (let ((let18 k))
  (let ((let19 (and let18 let17 let14 let11 let9 let7)))
  (let ((let20 return_n1))
  (let ((let21 (as ff1 FF0)))
  (let ((let22 (= let21 let20)))
  (let ((let23 (= let22 let19)))
  (let ((let24 (as ff0 FF0)))
  (let ((let25 (= let24 let20)))
  (let ((let26 (or let22 let25)))
  (let ((let27 (and let26 let23)))
  (let ((let28 mul_n16))
  (let ((let29 mul_n23))
  (let ((let30 (ff.mul let29 let28)))
  (let ((let31 (= let30 let20)))
  (let ((let32 (as ff52435875175126190479447740508185965837690552500527637822603658699938581184512 FF0)))
  (let ((let33 j_n5))
  (let ((let34 (ff.mul let33 let32)))
  (let ((let35 (ff.add let34 let21)))
  (let ((let36 mul_n22))
  (let ((let37 (ff.mul let36 let35)))
  (let ((let38 (= let37 let29)))
  (let ((let39 mul_n17))
  (let ((let40 (ff.mul let39 let32)))
  (let ((let41 (ff.add let40 let21)))
  (let ((let42 mul_n21))
  (let ((let43 (ff.mul let42 let41)))
  (let ((let44 (= let43 let36)))
  (let ((let45 mul_n20))
  (let ((let46 mul_n19))
  (let ((let47 h_n9))
  (let ((let48 (ff.mul let47 let32)))
  (let ((let49 c_n8))
  (let ((let50 (ff.mul let49 let32)))
  (let ((let51 (ff.add let50 let48 let46 let21)))
  (let ((let52 k_n3))
  (let ((let53 (ff.mul let52 let51)))
  (let ((let54 (= let53 let45)))
  (let ((let55 (as ff2 FF0)))
  (let ((let56 (ff.mul let49 let55)))
  (let ((let57 (ff.mul let56 let47)))
  (let ((let58 (= let57 let46)))
  (let ((let59 mul_n18))
  (let ((let60 l_n0))
  (let ((let61 e_n4))
  (let ((let62 (ff.mul let61 let55)))
  (let ((let63 (ff.mul let62 let60)))
  (let ((let64 (= let63 let59)))
  (let ((let65 f_n2))
  (let ((let66 (ff.mul let65 let32)))
  (let ((let67 (ff.add let66 let21)))
  (let ((let68 (ff.mul let65 let67)))
  (let ((let69 (= let68 let39)))
  (let ((let70 i_n7))
  (let ((let71 mul_n15))
  (let ((let72 (ff.mul let71 let70)))
  (let ((let73 (= let72 let28)))
  (let ((let74 mul_n13))
  (let ((let75 (ff.mul let74 let32)))
  (let ((let76 (ff.add let75 let21)))
  (let ((let77 g_n11))
  (let ((let78 (ff.mul let77 let32)))
  (let ((let79 mul_n14))
  (let ((let80 a_n12))
  (let ((let81 (ff.mul let80 let32)))
  (let ((let82 (ff.add let81 let79 let78 let21)))
  (let ((let83 (ff.mul let82 let76)))
  (let ((let84 (= let83 let71)))
  (let ((let85 (ff.mul let80 let55)))
  (let ((let86 (ff.mul let85 let77)))
  (let ((let87 (= let86 let79)))
  (let ((let88 b_n10))
  (let ((let89 (ff.mul let88 let32)))
  (let ((let90 (ff.add let89 let21)))
  (let ((let91 d_n6))
  (let ((let92 (ff.mul let91 let90)))
  (let ((let93 (= let92 let74)))
  (let ((let94 (and let93 let87 let84 let73 let69 let64 let58 let54 let44 let38 let31)))
  (let ((let95 (ite let12 let21 let24)))
  (let ((let96 (= let60 let95)))
  (let ((let97 (ite let15 let21 let24)))
  (let ((let98 (= let47 let97)))
  (let ((let99 (ite let0 let21 let24)))
  (let ((let100 (= let70 let99)))
  (let ((let101 (ite let16 let21 let24)))
  (let ((let102 (= let49 let101)))
  (let ((let103 (ite let18 let21 let24)))
  (let ((let104 (= let52 let103)))
  (let ((let105 (ite let13 let21 let24)))
  (let ((let106 (= let61 let105)))
  (let ((let107 (ite let10 let21 let24)))
  (let ((let108 (= let65 let107)))
  (let ((let109 (ite let8 let21 let24)))
  (let ((let110 (= let33 let109)))
  (let ((let111 (ite let2 let21 let24)))
  (let ((let112 (= let91 let111)))
  (let ((let113 (ite let5 let21 let24)))
  (let ((let114 (= let80 let113)))
  (let ((let115 (ite let4 let21 let24)))
  (let ((let116 (= let77 let115)))
  (let ((let117 (ite let1 let21 let24)))
  (let ((let118 (= let88 let117)))
  (let ((let119 (and let118 let116 let114 let112 let110 let108 let106 let104 let102 let100 let98 let96)))
  (let ((let120 (and let119 let94)))
  (let ((let121 (=> let120 let27)))
  (let ((let122 (not let121)))
  let122
)))))))))))))))))))))))))))))))))))))))))))))))))))))))))))))))))))))))))))))))))))))))))))))))))))))))))))))))))))))))))))
)
(check-sat)
